100 100 100
50
46 39 75
27 21 61
94 81 35
86 60 34
8 62 26
76 4 35
37 3 50
76 22 52
35 80 23
67 75 96
27 97 8
47 59 87
100 79 1
18 64 70
46 24 91
97 65 29
11 70 55
23 5 73
58 32 24
35 42 33
32 74 46
45 78 97
40 40 7
60 32 86
99 10 75
36 51 95
25 24 50
65 84 62
53 18 8
88 42 27
93 100 32
13 88 77
74 1 43
26 13 96
95 75 80
76 83 98
35 37 10
71 52 59
17 29 19
97 61 24
99 69 37
39 38 54
77 38 94
55 71 46
71 38 69
70 35 73
92 26 4
82 68 32
1 6 66
62 2 91
